maximize
obj: 1.0416897941854337 x_1,1__out + 2.0833795883708675 x_1,2__out + 4.166759176741735 x_1,3__out + 8.33351835348347 x_1,4__out + 16.66703670696694 x_1,5__out + 33.33407341393388 x_1,6__out + 66.66814682786776 x_1,7__out + 133.33629365573552 x_1,8__out + 1.0367713377117336 x_2,1__out + 2.073542675423467 x_2,2__out + 4.147085350846934 x_2,3__out + 8.294170701693869 x_2,4__out + 16.588341403387737 x_2,5__out + 33.176682806775474 x_2,6__out + 66.35336561355095 x_2,7__out + 132.7067312271019 x_2,8__out + 1.0451395683289146 x_3,1__out + 2.0902791366578293 x_3,2__out + 4.1805582733156585 x_3,3__out + 8.361116546631317 x_3,4__out + 16.722233093262634 x_3,5__out + 33.44446618652527 x_3,6__out + 66.88893237305054 x_3,7__out + 133.77786474610107 x_3,8__out + 1.0686908201414929 x_4,1__out + 2.1373816402829857 x_4,2__out + 4.274763280565971 x_4,3__out + 8.549526561131943 x_4,4__out + 17.099053122263886 x_4,5__out + 34.19810624452777 x_4,6__out + 68.39621248905554 x_4,7__out + 136.7924249781111 x_4,8__out + 1.018047963232096 x_5,1__out + 2.036095926464192 x_5,2__out + 4.072191852928384 x_5,3__out + 8.144383705856768 x_5,4__out + 16.288767411713536 x_5,5__out + 32.57753482342707 x_5,6__out + 65.15506964685414 x_5,7__out + 130.3101392937083 x_5,8__out + 1.0371714519736963 x_6,1__out + 2.0743429039473926 x_6,2__out + 4.148685807894785 x_6,3__out + 8.29737161578957 x_6,4__out + 16.59474323157914 x_6,5__out + 33.18948646315828 x_6,6__out + 66.37897292631656 x_6,7__out + 132.75794585263313 x_6,8__out + 0.9899181149061033 x_7,1__out + 1.9798362298122065 x_7,2__out + 3.959672459624413 x_7,3__out + 7.919344919248826 x_7,4__out + 15.838689838497652 x_7,5__out + 31.677379676995304 x_7,6__out + 63.35475935399061 x_7,7__out + 126.70951870798122 x_7,8__out + 1.0410417994647578 x_8,1__out + 2.0820835989295157 x_8,2__out + 4.164167197859031 x_8,3__out + 8.328334395718063 x_8,4__out + 16.656668791436125 x_8,5__out + 33.31333758287225 x_8,6__out + 66.6266751657445 x_8,7__out + 133.253350331489 x_8,8__out + 1.0005 x_9,1__out + 2.001 x_9,2__out + 4.002 x_9,3__out + 8.004 x_9,4__out + 16.008 x_9,5__out + 32.016 x_9,6__out + 64.032 x_9,7__out + 128.064 x_9,8__out + 1 x89
subject to
selffin: -1.0005 x_9,1__in - 2.001 x_9,2__in - 4.002 x_9,3__in - 8.004 x_9,4__in - 16.008 x_9,5__in - 32.016 x_9,6__in - 64.032 x_9,7__in - 128.064 x_9,8__in + 1.001 b_1_ + 1.001 b_2_ + 1.001 b_3_ + 1.001 b_4_ + 1.001 b_5_ + 1.001 b_6_ + 1.001 b_7_ + 1.001 b_8_ - 0.999 s_1_ - 0.999 s_2_ - 0.999 s_3_ - 0.999 s_4_ - 0.999 s_5_ - 0.999 s_6_ - 0.999 s_7_ - 0.999 s_8_ + 1 x_9,1__out + 2 x_9,2__out + 4 x_9,3__out + 8 x_9,4__out + 16 x_9,5__out + 32 x_9,6__out + 64 x_9,7__out + 128 x_9,8__out = 0
flow_1_: 0.9620560184187379 x_1,1__in + 1.9241120368374758 x_1,2__in + 3.8482240736749516 x_1,3__in + 7.696448147349903 x_1,4__in + 15.392896294699806 x_1,5__in + 30.785792589399612 x_1,6__in + 61.571585178799225 x_1,7__in + 123.14317035759845 x_1,8__in - 1 b_1_ + 1 s_1_ + 1 x_1,1__out + 2 x_1,2__out + 4 x_1,3__out + 8 x_1,4__out + 16 x_1,5__out + 32 x_1,6__out + 64 x_1,7__out + 128 x_1,8__out = 0
flow_2_: 0.994972302484382 x_2,1__in + 1.989944604968764 x_2,2__in + 3.979889209937528 x_2,3__in + 7.959778419875056 x_2,4__in + 15.919556839750111 x_2,5__in + 31.839113679500223 x_2,6__in + 63.678227359000445 x_2,7__in + 127.35645471800089 x_2,8__in - 1 b_2_ + 1 s_2_ + 1 x_2,1__out + 2 x_2,2__out + 4 x_2,3__out + 8 x_2,4__out + 16 x_2,5__out + 32 x_2,6__out + 64 x_2,7__out + 128 x_2,8__out = 0
flow_3_: 0.9729772901385321 x_3,1__in + 1.9459545802770641 x_3,2__in + 3.8919091605541283 x_3,3__in + 7.7838183211082566 x_3,4__in + 15.567636642216513 x_3,5__in + 31.135273284433026 x_3,6__in + 62.27054656886605 x_3,7__in + 124.5410931377321 x_3,8__in - 1 b_3_ + 1 s_3_ + 1 x_3,1__out + 2 x_3,2__out + 4 x_3,3__out + 8 x_3,4__out + 16 x_3,5__out + 32 x_3,6__out + 64 x_3,7__out + 128 x_3,8__out = 0
flow_4_: 0.990666389910829 x_4,1__in + 1.981332779821658 x_4,2__in + 3.962665559643316 x_4,3__in + 7.925331119286632 x_4,4__in + 15.850662238573264 x_4,5__in + 31.701324477146528 x_4,6__in + 63.402648954293056 x_4,7__in + 126.80529790858611 x_4,8__in - 1 b_4_ + 1 s_4_ + 1 x_4,1__out + 2 x_4,2__out + 4 x_4,3__out + 8 x_4,4__out + 16 x_4,5__out + 32 x_4,6__out + 64 x_4,7__out + 128 x_4,8__out = 0
flow_5_: 1.0245196058362918 x_5,1__in + 2.0490392116725835 x_5,2__in + 4.098078423345167 x_5,3__in + 8.196156846690334 x_5,4__in + 16.392313693380668 x_5,5__in + 32.784627386761336 x_5,6__in + 65.56925477352267 x_5,7__in + 131.13850954704535 x_5,8__in - 1 b_5_ + 1 s_5_ + 1 x_5,1__out + 2 x_5,2__out + 4 x_5,3__out + 8 x_5,4__out + 16 x_5,5__out + 32 x_5,6__out + 64 x_5,7__out + 128 x_5,8__out = 0
flow_6_: 0.9749547329525327 x_6,1__in + 1.9499094659050653 x_6,2__in + 3.8998189318101306 x_6,3__in + 7.799637863620261 x_6,4__in + 15.599275727240522 x_6,5__in + 31.198551454481045 x_6,6__in + 62.39710290896209 x_6,7__in + 124.79420581792418 x_6,8__in - 1 b_6_ + 1 s_6_ + 1 x_6,1__out + 2 x_6,2__out + 4 x_6,3__out + 8 x_6,4__out + 16 x_6,5__out + 32 x_6,6__out + 64 x_6,7__out + 128 x_6,8__out = 0
flow_7_: 1.0103785943720751 x_7,1__in + 2.0207571887441502 x_7,2__in + 4.0415143774883004 x_7,3__in + 8.083028754976601 x_7,4__in + 16.166057509953202 x_7,5__in + 32.332115019906404 x_7,6__in + 64.66423003981281 x_7,7__in + 129.32846007962561 x_7,8__in - 1 b_7_ + 1 s_7_ + 1 x_7,1__out + 2 x_7,2__out + 4 x_7,3__out + 8 x_7,4__out + 16 x_7,5__out + 32 x_7,6__out + 64 x_7,7__out + 128 x_7,8__out = 0
flow_8_: 0.9565613847423494 x_8,1__in + 1.9131227694846988 x_8,2__in + 3.8262455389693977 x_8,3__in + 7.652491077938795 x_8,4__in + 15.30498215587759 x_8,5__in + 30.60996431175518 x_8,6__in + 61.21992862351036 x_8,7__in + 122.43985724702073 x_8,8__in - 1 b_8_ + 1 s_8_ + 1 x_8,1__out + 2 x_8,2__out + 4 x_8,3__out + 8 x_8,4__out + 16 x_8,5__out + 32 x_8,6__out + 64 x_8,7__out + 128 x_8,8__out = 0
Bounds
x89 <= 0
b_1_ >= 0
b_2_ >= 0
b_3_ >= 0
b_4_ >= 0
b_5_ >= 0
b_6_ >= 0
b_7_ >= 0
b_8_ >= 0
s_1_ >= 0
s_2_ >= 0
s_3_ >= 0
s_4_ >= 0
s_5_ >= 0
s_6_ >= 0
s_7_ >= 0
s_8_ >= 0
x89 >= 0
x_1,1__in = 0
x_2,1__in = 0
x_3,1__in = 0
x_4,1__in = 0
x_5,1__in = 0
x_6,1__in = 0
x_7,1__in = 0
x_8,1__in = 0
x_9,1__in = 0
x_1,2__in = 0
x_2,2__in = 0
x_3,2__in = 0
x_4,2__in = 0
x_5,2__in = 0
x_6,2__in = 0
x_7,2__in = 0
x_8,2__in = 0
x_9,2__in = 0
x_1,3__in = 0
x_2,3__in = 0
x_3,3__in = 0
x_4,3__in = 0
x_5,3__in = 0
x_6,3__in = 0
x_7,3__in = 0
x_8,3__in = 0
x_9,3__in = 1
x_1,4__in = 0
x_2,4__in = 0
x_3,4__in = 0
x_4,4__in = 0
x_5,4__in = 0
x_6,4__in = 0
x_7,4__in = 0
x_8,4__in = 0
x_9,4__in = 0
x_1,5__in = 0
x_2,5__in = 0
x_3,5__in = 0
x_4,5__in = 0
x_5,5__in = 0
x_6,5__in = 0
x_7,5__in = 0
x_8,5__in = 0
x_9,5__in = 0
x_1,6__in = 0
x_2,6__in = 0
x_3,6__in = 0
x_4,6__in = 0
x_5,6__in = 0
x_6,6__in = 0
x_7,6__in = 0
x_8,6__in = 0
x_9,6__in = 1
x_1,7__in = 0
x_2,7__in = 0
x_3,7__in = 0
x_4,7__in = 0
x_5,7__in = 0
x_6,7__in = 0
x_7,7__in = 0
x_8,7__in = 0
x_9,7__in = 1
x_1,8__in = 0
x_2,8__in = 0
x_3,8__in = 0
x_4,8__in = 0
x_5,8__in = 0
x_6,8__in = 0
x_7,8__in = 0
x_8,8__in = 0
x_9,8__in = 0
Binary
x_1,1__out
x_2,1__out
x_3,1__out
x_4,1__out
x_5,1__out
x_6,1__out
x_7,1__out
x_8,1__out
x_9,1__out
x_1,2__out
x_2,2__out
x_3,2__out
x_4,2__out
x_5,2__out
x_6,2__out
x_7,2__out
x_8,2__out
x_9,2__out
x_1,3__out
x_2,3__out
x_3,3__out
x_4,3__out
x_5,3__out
x_6,3__out
x_7,3__out
x_8,3__out
x_9,3__out
x_1,4__out
x_2,4__out
x_3,4__out
x_4,4__out
x_5,4__out
x_6,4__out
x_7,4__out
x_8,4__out
x_9,4__out
x_1,5__out
x_2,5__out
x_3,5__out
x_4,5__out
x_5,5__out
x_6,5__out
x_7,5__out
x_8,5__out
x_9,5__out
x_1,6__out
x_2,6__out
x_3,6__out
x_4,6__out
x_5,6__out
x_6,6__out
x_7,6__out
x_8,6__out
x_9,6__out
x_1,7__out
x_2,7__out
x_3,7__out
x_4,7__out
x_5,7__out
x_6,7__out
x_7,7__out
x_8,7__out
x_9,7__out
x_1,8__out
x_2,8__out
x_3,8__out
x_4,8__out
x_5,8__out
x_6,8__out
x_7,8__out
x_8,8__out
x_9,8__out
End
